66 300 101 130 103 108 146 101 111 134 101 149 108 129 120 100 115 103 126 101 115 124 131 126 110 122 118 115 119 138 120 107 128 122 111 131 130 131 107 142 114 133 140 148 111 134 122 101 138 148 127 102 122 108 102 106 130 120 121 150 132 142 131 109 113 116 115 117 